(declare-fun var0 () String)
(assert (str.in.re var0 (re.++ (re.* (re.+ (str.to.re "ggg"))) (re.++ (re.union (re.+ (str.to.re "e")) (re.+ (str.to.re "ff"))) (re.++ (re.+ (re.+ (str.to.re "ddd"))) (re.++ (re.union (re.union (str.to.re "99") (str.to.re "aaa")) (re.union (str.to.re "bbb") (str.to.re "cc"))) (re.++ (re.* (re.+ (str.to.re "888"))) (re.++ (re.+ (re.+ (str.to.re "777"))) (re.++ (re.union (re.union (str.to.re "444") (str.to.re "5")) (re.* (str.to.re "666"))) (re.++ (re.+ (re.+ (str.to.re "3"))) (re.++ (re.* (re.+ (str.to.re "222"))) (re.* (re.union (str.to.re "000") (str.to.re "11"))))))))))))))
(assert (<= 1 (str.len var0)))
(check-sat)